(set-logic QF_S)
(declare-fun var0 () String)
(assert (RegexIn var0 (RegexConcat (RegexPlus (RegexStar (RegexPlus (RegexPlus (RegexUnion (RegexStar (Str2Reg "0")) (RegexStar (Str2Reg "11"))))))) (RegexUnion (RegexPlus (RegexStar (RegexStar (RegexPlus (RegexPlus (Str2Reg "22")))))) (RegexPlus (RegexUnion (RegexPlus (RegexPlus (RegexPlus (Str2Reg "3")))) (RegexPlus (RegexPlus (RegexUnion (Str2Reg "4") (Str2Reg "55"))))))))))
(assert (<= 15 (Length var0)))
(check-sat)